(set-logic QF_S)
(declare-fun var0 () String)
(assert (str.in.re var0 (re.++ (re.+ (re.* (str.to.re "0"))) (re.++ (re.union (re.union (str.to.re "11") (str.to.re "2")) (re.union (str.to.re "3") (str.to.re "444"))) (re.++ (re.union (re.+ (str.to.re "5")) (re.+ (str.to.re "6"))) (re.++ (re.union (re.+ (str.to.re "77")) (re.+ (str.to.re "8"))) (re.++ (re.* (re.+ (str.to.re "999"))) (re.++ (re.* (re.* (str.to.re "a"))) (re.++ (re.+ (re.* (str.to.re "bbb"))) (re.++ (re.* (re.+ (str.to.re "cc"))) (re.++ (re.* (re.* (str.to.re "ddd"))) (re.++ (re.* (re.union (str.to.re "eee") (str.to.re "f"))) (re.++ (re.* (re.* (str.to.re "g"))) (re.++ (re.* (re.union (str.to.re "hh") (str.to.re "ii"))) (re.++ (re.union (re.* (str.to.re "jjj")) (re.* (str.to.re "kk"))) (re.++ (re.* (re.+ (str.to.re "lll"))) (re.++ (re.+ (re.union (str.to.re "m") (str.to.re "nnn"))) (re.++ (re.* (re.union (str.to.re "o") (str.to.re "ppp"))) (re.++ (re.union (re.+ (str.to.re "q")) (re.+ (str.to.re "rrr"))) (re.++ (re.* (re.* (str.to.re "sss"))) (re.++ (re.+ (re.* (str.to.re "t"))) (re.++ (re.+ (re.* (str.to.re "u"))) (re.++ (re.+ (re.+ (str.to.re "vvv"))) (re.++ (re.* (re.* (str.to.re "ww"))) (re.* (re.union (str.to.re "xx") (str.to.re "yyy")))))))))))))))))))))))))))
(check-sat)